NAME : in_house_9_3
TYPE : TSP
DIMENSION : 9
EDGE_WEIGHT_TYPE : EXPLICIT
EDGE_WEIGHT_FORMAT : UPPER_ROW
COMMENT : INVERSION_SHIFT=6
EDGE_WEIGHT_SECTION
17
50
38
11
60
36
7
14
81
54
44
29
22
54
13
32
41
30
15
29
41
66
34
10
6
1
6
7
65
4
39
27
36
63
64
46
